s td 31 10 40
b 1 2 11
b 2 18 31
b 3 21 24
b 4 8 34
b 5 2 40
b 6 7 16 22
b 7 5 26 29
b 8 35 37 38
b 9 2 37 38
b 10 5 25 29 39
b 11 2 13 14 27
b 12 1 2 3 6 14 16 24 29 33 36
b 13 1 3 6 14 16 25 29 33 36
b 14 3 6 10 16 25 29 33 36
b 15 7 10 16 29
b 16 6 10 16 25 28 33 36
b 17 6 10 19 25 28 36
b 18 6 10 15 19 36
b 19 8 14 25 36
b 20 1 25 29 39
b 21 1 2 3 6 14 16 24 32 33 36
b 22 1 2 3 9 16 24 32 33 36
b 23 9 12 16 24 32
b 24 1 3 9 20
b 25 2 3 9 16 24 36 37
b 26 9 16 24 31 37
b 27 2 14 24 27 29
b 28 3 6 14 16 30
b 29 4
b 30 17
b 31 23
1 12
1 29
1 30
1 31
2 26
3 12
4 19
5 12
6 15
7 10
8 9
9 25
10 20
11 27
12 13
12 21
12 27
12 28
13 14
13 19
13 20
14 15
14 16
16 17
17 18
21 22
22 23
22 24
22 25
25 26
